<number of tasks>
50

<cycle time>
1000

<order strength>
0.896


<task times>
1 315
2 302
3 656
4 582
5 257
6 482
7 731
8 451
9 536
10 350
11 492
12 354
13 271
14 510
15 453
16 239
17 299
18 476
19 565
20 401
21 488
22 294
23 683
24 476
25 447
26 405
27 563
28 360
29 475
30 616
31 539
32 395
33 372
34 551
35 410
36 596
37 511
38 523
39 517
40 214
41 544
42 629
43 526
44 215
45 560
46 599
47 626
48 516
49 611
50 676

<precedence relations>
1,2
1,3
1,4
2,5
2,6
2,7
3,5
3,6
3,7
4,5
4,6
4,7
5,8
5,9
5,10
5,11
6,8
6,9
6,10
6,11
7,8
7,9
7,10
7,11
8,12
8,13
8,14
9,12
9,13
9,14
10,12
10,13
10,14
11,12
11,13
11,14
12,15
12,16
12,17
12,18
13,15
13,16
13,17
13,18
14,15
14,16
14,17
14,18
15,19
15,20
16,19
16,20
17,19
17,20
18,19
18,20
19,21
19,22
19,23
19,24
20,21
20,22
20,23
20,24
21,25
21,26
21,27
22,25
22,26
22,27
23,25
23,26
23,27
24,25
24,26
24,27
25,28
25,29
25,30
26,28
26,29
26,30
27,48
28,34
29,31
29,32
30,31
31,34
32,33
32,37
33,38
33,39
34,35
35,36
36,37
36,38
36,39
37,40
37,42
38,42
38,50
39,40
39,41
39,42
40,44
41,43
41,45
41,46
42,44
42,46
43,48
43,49
43,50
45,47
45,50

<end>
